846043
57,45,124,226,133,18,43,155,210,90,95,67,8,165,100,191,150,54,61,101,168,26,39,80,129,86,34,93,107,49,27,77,214,74,33,36,178,204,160,183,115,19,182,209,62,31,188,184,59,136,14,96,13,64,199,197,113,112,159,41,97,198,30,42,206,38,66,73,156,82,70,117,146,126,177,176,151,190,9,200,164,193,16,222,175,46,224,47,110,12,219,29,63,4,144,143,25,106,195,88,21,116,15,2,7,119,109,137,207,22,225,50,72,208,217,172,147,181,60,24,122,130,135,205,69,85,180,123,187,84,166,78,83,94,56,75,173,142,196,138,203,1,114,148,76,221,40,127,105,218,140,23,65,189,98,99,215,52,174,53,55,17,91,104,201,120,179,157,81,131,79,51,194,121,139,134,161,228,132,154,111,35,6,0,71,48,162,158,68,125,118,192,28,153,163,213,10,220,58,92,167,171,211,103,37,102,186,11,145,141,169,89,149,170,185,108,87,227,3,20,216,152,128,32,223,202,5,229,44,212,57